AME : levi30_24
COMMENT : 30: 40x18 -city problem (levikoppenhol)
TYPE : TSP
DIMENSION : 30
EDGE_WEIGHT_TYPE : EUC_2D
NODE_COORD_SECTION
1 4 30
2 7 37
3 8 2
4 14 28
5 13 5
6 9 18
7 9 33
8 7 6
9 17 6
10 15 2
11 17 9
12 18 12
13 4 20
14 2 3
15 6 24
16 0 15
17 15 23
18 6 10
19 17 9
20 15 21
21 6 37
22 9 25
23 14 35
24 7 37
25 0 9
26 14 20
27 7 27
28 16 24
29 13 9
30 15 1
EOF